language Essence 1.3

letting bot_end be [3233, 1801, 2288, 4218, 3286, 420, 1753, 2800, 3577, 4170, 147, 33, 3724, 3014; int(1..14)]
letting bot_start be [126, 4193, 4366, 1532, 1450, 3021, 2597, 257, 1262, 474, 1649, 4275, 631, 972; int(1..14)]
letting buffer_col be 2
letting buffer_row be 2
letting corridor_size be 1
letting n_shelves_col be 15
letting n_shelves_row be 49
letting shelf_col_size be 2
letting shelf_row_size be 1
